p cnf 11 47
c max 8 9 10 11 0
c ind 1 2 3 4 5 6 7 0
c p weight 3 -1 0
c p weight -3 1 0
c p weight 6 -1 0
c p weight -6 1 0
c p weight 7 0.70710678118654752440084436210485 0
c p weight -7 1 0
3 -2 0
-3 2 0
-6 -8 0
4 -8 -1 0
-4 -8 1 0
5 -8 -2 0
-5 -8 2 0
-7 -8 0
-6 -9 1 0
-6 -9 2 0
6 -9 -1 -2 0
4 -9 -2 0
-4 -9 2 0
5 -9 -1 0
-5 -9 1 0
-7 -9 0
-6 5 -10 0
-6 -10 1 0
-6 -10 -2 0
6 -5 -10 -1 2 0
-6 -11 1 0
-6 -11 2 0
-6 -5 -11 0
6 5 -11 -1 -2 0
4 -10 -1 0
4 -11 -1 0
-4 -10 1 0
-4 -11 1 0
5 -10 1 -2 0
5 -11 1 -2 0
-5 -10 1 2 0
-5 -11 1 2 0
7 -10 -1 0
7 -11 -1 0
-7 -10 1 0
-7 -11 1 0
8 9 10 11 0
-8 -9 0
-8 -10 0
-8 -11 0
-9 -10 0
-9 -11 0
-10 -11 0
4 -1 0
-4 1 0
5 -2 0
-5 2 0
